(set-logic QF_BV)
(declare-fun _substvar_414_ () (_ BitVec 15))
(declare-fun _substvar_705_ () (_ BitVec 15))
(declare-fun _substvar_884_ () Bool)
(declare-fun _substvar_601_ () (_ BitVec 15))
(declare-fun _substvar_739_ () (_ BitVec 15))
(declare-fun _substvar_710_ () (_ BitVec 15))
(declare-fun _substvar_720_ () (_ BitVec 15))
(declare-fun _substvar_876_ () Bool)
(declare-fun _substvar_636_ () (_ BitVec 1))
(assert (and true true true true true true true true true true true true true true true true true true true true true true true true true true true true true true true true true true true true true true true true true true true true true true true true true true true true true true true true true true (ite _substvar_884_ (= _substvar_601_ (_ bv0 15)) (= _substvar_601_ (concat (_ bv0 14) _substvar_636_))) (= _substvar_705_ (concat ((_ extract 13 0) _substvar_601_) (bvxor ((_ extract 14 14) _substvar_601_) ((_ extract 13 13) _substvar_601_)))) (= _substvar_710_ (concat ((_ extract 13 0) _substvar_705_) (bvxor ((_ extract 14 14) _substvar_705_) (_ bv0 1)))) (ite _substvar_876_ (= _substvar_414_ (_ bv0 15)) (= _substvar_414_ (concat ((_ extract 13 0) _substvar_710_) (_ bv0 1)))) (= _substvar_720_ (concat ((_ extract 13 0) _substvar_414_) (_ bv0 1))) (= _substvar_739_ (concat (_ bv0 14) (bvxor ((_ extract 14 14) _substvar_720_) ((_ extract 13 13) _substvar_720_)))) true true true true true true true true true true true true true true true true true true true true true true true true true true true true true true true true true true true true true true true true true true true true true true true true true true true true true true true true true true true true true true true true true true true true true true true true true true (= (= (_ bv0 15) _substvar_739_) false)))
(check-sat)
(exit)
